c 
c MolecularSimulation 0.9.3
c Simulation written: Jan 13 2012 -- 15:17:57
c Test: Distribution
c Input: ./data/testCNF/SWEEP_R2_K3_N16_M32_S000.cnf
c 
s SATISFIABLE
v 2 3 4 5 6 7 8 -9 -10 11 12 -13 14 15 -16 0
c algorithmTime:  11
c solutionMemory: 2646
c mixCount:       93
c extractCount:   0
c appendCount:    242367
c splitCount:     93
c spliceCount:    114637
c purifyCount:    31
c 
